results_rootrelaxation/bin012_080_024.srr.sol
solution status: optimal solution found
objective value:                                18.12
_var76_                                          0.28 	(obj:2)
_var734_                                         0.12 	(obj:1)
_var749_                            0.200000000000001 	(obj:2)
_var781_                            0.080000000000001 	(obj:0)
_var786_                            0.080000000000001 	(obj:0)
_var790_                           0.0399999999999997 	(obj:3)
_var807_                                         0.72 	(obj:0)
_var814_                            0.359999999999999 	(obj:1)
_var820_                                         0.16 	(obj:1)
_var825_                                         0.28 	(obj:3)
_var838_                                         0.12 	(obj:2)
_var840_                                         0.28 	(obj:0)
_var841_                                         0.12 	(obj:1)
_var842_                                          0.2 	(obj:1)
_var854_                                         0.12 	(obj:1)
_var859_                                          0.2 	(obj:1)
_var860_                                          0.4 	(obj:2)
_var865_                                          0.6 	(obj:1)
_var872_                           0.0799999999999996 	(obj:3)
_var876_                            0.279999999999999 	(obj:0)
_var877_                                          0.2 	(obj:2)
_var910_                            0.080000000000001 	(obj:3)
_var911_                           0.0799999999999993 	(obj:4)
_var915_                            0.200000000000001 	(obj:2)
_var919_                            0.360000000000001 	(obj:1)
_var922_                                          0.2 	(obj:3)
_var923_                            0.240000000000001 	(obj:4)
_var927_                                         0.44 	(obj:2)
_var940_                            0.799999999999999 	(obj:1)
_var943_                                         0.12 	(obj:3)
_var945_                            0.159999999999999 	(obj:2)
_var947_                            0.200000000000001 	(obj:3)
_var951_                            0.599999999999999 	(obj:2)
_var953_                                         0.44 	(obj:3)
_var956_                                         0.16 	(obj:1)
_var957_                           0.0799999999999996 	(obj:2)
_var962_                            0.399999999999999 	(obj:2)
_var964_                           0.0799999999999996 	(obj:3)
_var966_                                         0.28 	(obj:1)
_var969_                                          0.4 	(obj:3)
_var971_                                         0.16 	(obj:1)
_var972_                                         0.12 	(obj:2)
_var977_                            0.160000000000001 	(obj:3)
_var978_                           0.0399999999999988 	(obj:3)
_var984_                                         0.12 	(obj:1)
_var985_                            0.120000000000001 	(obj:2)
_var986_                           0.0400000000000019 	(obj:2)
