results_rootrelaxation/bin012_080_024.srr.log
SCIP version 8.0.3.5 [precision: 8 byte] [memory: block] [mode: optimized] [LP solver: Soplex 6.0.1.3] [GitHash: 438792519e]
Copyright (c) 2002-2023 Zuse Institute Berlin (ZIB)

External libraries: 
  Readline 8.1         GNU library for command line editing (gnu.org/s/readline)
  Soplex 6.0.1.3       Linear Programming Solver developed at Zuse Institute Berlin (soplex.zib.de) [GitHash: 713be0fe]
  CppAD 20180000.0     Algorithmic Differentiation of C++ algorithms developed by B. Bell (github.com/coin-or/CppAD)
  ZLIB 1.2.11          General purpose compression library by J. Gailly and M. Adler (zlib.net)
  bliss 0.77           Computing Graph Automorphism Groups by T. Junttila and P. Kaski (www.tcs.hut.fi/Software/bliss/)

user parameter file <scip.set> not found - using default parameters

srr/relaxation = TRUE

read problem <instances/bin012_080_024.srr>
============

Original problem: 
original problem has 0 variables (0 bin, 0 int, 0 impl, 0 cont) and 77 constraints

presolving:
presolving (1 rounds: 1 fast, 1 medium, 1 exhaustive):
 0 deleted vars, 0 deleted constraints, 0 added constraints, 0 tightened bounds, 0 added holes, 0 changed sides, 0 changed coefficients
 0 implications, 0 cliques
presolved problem has 0 variables (0 bin, 0 int, 0 impl, 0 cont) and 77 constraints
     77 constraints of type <linear>
Presolving Time: 0.00

 time | node  | left  |LP iter|LP it/n|mem/heur|mdpt |vars |cons |rows |cuts |sepa|confs|strbr|  dualbound   | primalbound  |  gap   | compl. 
  0.0s|     1 |     0 |     1 |     - |   710k |   0 |   1 |  77 |  77 |   0 |  0 |   0 |   0 |      --      |      --      |    Inf | unknown
r 0.1s|     1 |     0 |  1111 |     - |simplero|   0 | 727 |  77 |  77 |   0 |  0 |   0 |   0 |      --      | 3.653072e+01 |    Inf | unknown
r 0.1s|     1 |     0 |  1150 |     - |simplero|   0 | 738 |  77 |  77 |   0 |  0 |   0 |   0 |      --      | 3.449326e+01 |    Inf | unknown
r 0.1s|     1 |     0 |  1192 |     - |simplero|   0 | 749 |  77 |  77 |   0 |  0 |   0 |   0 |      --      | 3.329710e+01 |    Inf | unknown
r 0.1s|     1 |     0 |  1236 |     - |simplero|   0 | 760 |  77 |  77 |   0 |  0 |   0 |   0 |      --      | 3.219582e+01 |    Inf | unknown
r 0.1s|     1 |     0 |  1252 |     - |simplero|   0 | 760 |  77 |  77 |   0 |  0 |   0 |   0 |      --      | 3.193908e+01 |    Inf | unknown
r 0.1s|     1 |     0 |  1254 |     - |simplero|   0 | 760 |  77 |  77 |   0 |  0 |   0 |   0 |      --      | 3.193732e+01 |    Inf | unknown
r 0.1s|     1 |     0 |  1306 |     - |simplero|   0 | 771 |  77 |  77 |   0 |  0 |   0 |   0 |      --      | 3.065580e+01 |    Inf | unknown
r 0.1s|     1 |     0 |  1323 |     - |simplero|   0 | 771 |  77 |  77 |   0 |  0 |   0 |   0 |      --      | 3.049556e+01 |    Inf | unknown
r 0.1s|     1 |     0 |  1395 |     - |simplero|   0 | 782 |  77 |  77 |   0 |  0 |   0 |   0 |      --      | 2.735458e+01 |    Inf | unknown
r 0.1s|     1 |     0 |  1403 |     - |simplero|   0 | 782 |  77 |  77 |   0 |  0 |   0 |   0 |      --      | 2.727406e+01 |    Inf | unknown
r 0.1s|     1 |     0 |  1409 |     - |simplero|   0 | 782 |  77 |  77 |   0 |  0 |   0 |   0 |      --      | 2.726578e+01 |    Inf | unknown
r 0.1s|     1 |     0 |  1458 |     - |simplero|   0 | 793 |  77 |  77 |   0 |  0 |   0 |   0 |      --      | 2.553746e+01 |    Inf | unknown
r 0.1s|     1 |     0 |  1493 |     - |simplero|   0 | 793 |  77 |  77 |   0 |  0 |   0 |   0 |      --      | 2.508263e+01 |    Inf | unknown
r 0.1s|     1 |     0 |  1501 |     - |simplero|   0 | 793 |  77 |  77 |   0 |  0 |   0 |   0 |      --      | 2.504803e+01 |    Inf | unknown
 time | node  | left  |LP iter|LP it/n|mem/heur|mdpt |vars |cons |rows |cuts |sepa|confs|strbr|  dualbound   | primalbound  |  gap   | compl. 
r 0.1s|     1 |     0 |  1508 |     - |simplero|   0 | 793 |  77 |  77 |   0 |  0 |   0 |   0 |      --      | 2.500724e+01 |    Inf | unknown
r 0.1s|     1 |     0 |  1509 |     - |simplero|   0 | 793 |  77 |  77 |   0 |  0 |   0 |   0 |      --      | 2.500651e+01 |    Inf | unknown
r 0.1s|     1 |     0 |  1548 |     - |simplero|   0 | 804 |  77 |  77 |   0 |  0 |   0 |   0 |      --      | 2.388440e+01 |    Inf | unknown
r 0.1s|     1 |     0 |  1557 |     - |simplero|   0 | 804 |  77 |  77 |   0 |  0 |   0 |   0 |      --      | 2.385226e+01 |    Inf | unknown
r 0.1s|     1 |     0 |  1599 |     - |simplero|   0 | 815 |  77 |  77 |   0 |  0 |   0 |   0 |      --      | 2.330498e+01 |    Inf | unknown
r 0.1s|     1 |     0 |  1627 |     - |simplero|   0 | 815 |  77 |  77 |   0 |  0 |   0 |   0 |      --      | 2.299502e+01 |    Inf | unknown
r 0.1s|     1 |     0 |  1638 |     - |simplero|   0 | 815 |  77 |  77 |   0 |  0 |   0 |   0 |      --      | 2.294344e+01 |    Inf | unknown
r 0.1s|     1 |     0 |  1676 |     - |simplero|   0 | 826 |  77 |  77 |   0 |  0 |   0 |   0 |      --      | 2.211566e+01 |    Inf | unknown
r 0.1s|     1 |     0 |  1693 |     - |simplero|   0 | 826 |  77 |  77 |   0 |  0 |   0 |   0 |      --      | 2.203883e+01 |    Inf | unknown
r 0.1s|     1 |     0 |  1700 |     - |simplero|   0 | 826 |  77 |  77 |   0 |  0 |   0 |   0 |      --      | 2.201693e+01 |    Inf | unknown
r 0.1s|     1 |     0 |  1703 |     - |simplero|   0 | 826 |  77 |  77 |   0 |  0 |   0 |   0 |      --      | 2.201665e+01 |    Inf | unknown
r 0.1s|     1 |     0 |  1727 |     - |simplero|   0 | 837 |  77 |  77 |   0 |  0 |   0 |   0 |      --      | 2.175021e+01 |    Inf | unknown
  0.1s|     1 |     0 |  1731 |     - |  4196k |   0 | 837 |  77 |  77 |   0 |  0 |   0 |   0 |      --      | 2.175021e+01 |    Inf | unknown
r 0.1s|     1 |     0 |  1731 |     - |simplero|   0 | 837 |  77 |  77 |   0 |  0 |   0 |   0 |      --      | 2.174695e+01 |    Inf | unknown
r 0.1s|     1 |     0 |  1770 |     - |simplero|   0 | 848 |  77 |  77 |   0 |  0 |   0 |   0 |      --      | 2.139841e+01 |    Inf | unknown
 time | node  | left  |LP iter|LP it/n|mem/heur|mdpt |vars |cons |rows |cuts |sepa|confs|strbr|  dualbound   | primalbound  |  gap   | compl. 
r 0.1s|     1 |     0 |  1799 |     - |simplero|   0 | 848 |  77 |  77 |   0 |  0 |   0 |   0 |      --      | 2.098824e+01 |    Inf | unknown
r 0.1s|     1 |     0 |  1812 |     - |simplero|   0 | 848 |  77 |  77 |   0 |  0 |   0 |   0 |      --      | 2.094243e+01 |    Inf | unknown
r 0.1s|     1 |     0 |  1813 |     - |simplero|   0 | 848 |  77 |  77 |   0 |  0 |   0 |   0 |      --      | 2.094240e+01 |    Inf | unknown
r 0.1s|     1 |     0 |  1850 |     - |simplero|   0 | 859 |  77 |  77 |   0 |  0 |   0 |   0 |      --      | 2.067588e+01 |    Inf | unknown
r 0.1s|     1 |     0 |  1896 |     - |simplero|   0 | 870 |  77 |  77 |   0 |  0 |   0 |   0 |      --      | 1.997575e+01 |    Inf | unknown
r 0.1s|     1 |     0 |  1920 |     - |simplero|   0 | 881 |  77 |  77 |   0 |  0 |   0 |   0 |      --      | 1.956252e+01 |    Inf | unknown
r 0.1s|     1 |     0 |  1927 |     - |simplero|   0 | 881 |  77 |  77 |   0 |  0 |   0 |   0 |      --      | 1.955183e+01 |    Inf | unknown
r 0.1s|     1 |     0 |  1930 |     - |simplero|   0 | 881 |  77 |  77 |   0 |  0 |   0 |   0 |      --      | 1.955044e+01 |    Inf | unknown
r 0.1s|     1 |     0 |  1956 |     - |simplero|   0 | 892 |  77 |  77 |   0 |  0 |   0 |   0 |      --      | 1.926408e+01 |    Inf | unknown
r 0.1s|     1 |     0 |  1958 |     - |simplero|   0 | 892 |  77 |  77 |   0 |  0 |   0 |   0 |      --      | 1.926404e+01 |    Inf | unknown
r 0.1s|     1 |     0 |  2001 |     - |simplero|   0 | 903 |  77 |  77 |   0 |  0 |   0 |   0 |      --      | 1.897934e+01 |    Inf | unknown
r 0.1s|     1 |     0 |  2002 |     - |simplero|   0 | 903 |  77 |  77 |   0 |  0 |   0 |   0 |      --      | 1.897846e+01 |    Inf | unknown
r 0.1s|     1 |     0 |  2007 |     - |simplero|   0 | 903 |  77 |  77 |   0 |  0 |   0 |   0 |      --      | 1.897626e+01 |    Inf | unknown
r 0.1s|     1 |     0 |  2031 |     - |simplero|   0 | 914 |  77 |  77 |   0 |  0 |   0 |   0 |      --      | 1.881298e+01 |    Inf | unknown
r 0.1s|     1 |     0 |  2036 |     - |simplero|   0 | 914 |  77 |  77 |   0 |  0 |   0 |   0 |      --      | 1.880845e+01 |    Inf | unknown
 time | node  | left  |LP iter|LP it/n|mem/heur|mdpt |vars |cons |rows |cuts |sepa|confs|strbr|  dualbound   | primalbound  |  gap   | compl. 
r 0.1s|     1 |     0 |  2063 |     - |simplero|   0 | 925 |  77 |  77 |   0 |  0 |   0 |   0 |      --      | 1.865689e+01 |    Inf | unknown
r 0.1s|     1 |     0 |  2086 |     - |simplero|   0 | 936 |  77 |  77 |   0 |  0 |   0 |   0 |      --      | 1.856410e+01 |    Inf | unknown
r 0.1s|     1 |     0 |  2113 |     - |simplero|   0 | 945 |  77 |  77 |   0 |  0 |   0 |   0 |      --      | 1.839702e+01 |    Inf | unknown
r 0.1s|     1 |     0 |  2138 |     - |simplero|   0 | 955 |  77 |  77 |   0 |  0 |   0 |   0 |      --      | 1.832164e+01 |    Inf | unknown
r 0.1s|     1 |     0 |  2151 |     - |simplero|   0 | 962 |  77 |  77 |   0 |  0 |   0 |   0 |      --      | 1.826786e+01 |    Inf | unknown
r 0.1s|     1 |     0 |  2154 |     - |simplero|   0 | 962 |  77 |  77 |   0 |  0 |   0 |   0 |      --      | 1.826531e+01 |    Inf | unknown
r 0.1s|     1 |     0 |  2177 |     - |simplero|   0 | 972 |  77 |  77 |   0 |  0 |   0 |   0 |      --      | 1.816071e+01 |    Inf | unknown
r 0.1s|     1 |     0 |  2198 |     - |simplero|   0 | 980 |  77 |  77 |   0 |  0 |   0 |   0 |      --      | 1.813793e+01 |    Inf | unknown
r 0.1s|     1 |     0 |  2207 |     - |simplero|   0 | 985 |  77 |  77 |   0 |  0 |   0 |   0 |      --      | 1.812500e+01 |    Inf | unknown
r 0.1s|     1 |     0 |  2213 |     - |simplero|   0 | 986 |  77 |  77 |   0 |  0 |   0 |   0 |      --      | 1.812069e+01 |    Inf | unknown
r 0.1s|     1 |     0 |  2216 |     - |simplero|   0 | 990 |  77 |  77 |   0 |  0 |   0 |   0 |      --      | 1.812000e+01 |    Inf | unknown
  0.1s|     1 |     0 |  2219 |     - |  5035k |   0 | 992 |  77 |  77 |   0 |  0 |   0 |   0 | 1.812000e+01 | 1.812000e+01 |   0.00%| unknown
  0.1s|     1 |     0 |  2219 |     - |  5035k |   0 | 992 |  77 |  77 |   0 |  0 |   0 |   0 | 1.812000e+01 | 1.812000e+01 |   0.00%| unknown

SCIP Status        : problem is solved [optimal solution found]
Solving Time (sec) : 0.12
Solving Nodes      : 1
Primal Bound       : +1.81200000000000e+01 (54 solutions)
Dual Bound         : +1.81200000000000e+01
Gap                : 0.00 %

written transformed problem to file <results_rootrelaxation/bin012_080_024.srr.lp>
written transformed problem to file <results_rootrelaxation/bin012_080_024.srr.cip>

written solution information to file <results_rootrelaxation/bin012_080_024.srr.sol>



